p edge 64 512
e 1 25
e 1 36
e 1 21
e 1 49
e 1 43
e 1 28
e 1 30
e 1 17
e 1 3
e 1 40
e 1 5
e 1 37
e 1 61
e 1 63
e 1 32
e 1 50
e 1 55
e 2 4
e 2 64
e 2 32
e 2 53
e 2 47
e 2 63
e 2 38
e 2 57
e 2 31
e 2 6
e 2 60
e 2 54
e 2 8
e 2 61
e 2 45
e 2 42
e 3 48
e 3 59
e 3 10
e 3 14
e 3 24
e 3 18
e 3 51
e 3 6
e 3 16
e 3 63
e 3 31
e 3 9
e 3 53
e 3 36
e 3 12
e 4 30
e 4 61
e 4 48
e 4 22
e 4 34
e 4 8
e 4 58
e 4 35
e 4 37
e 4 24
e 4 36
e 4 18
e 4 31
e 4 38
e 4 42
e 4 10
e 4 25
e 5 56
e 5 58
e 5 34
e 5 63
e 5 36
e 5 27
e 5 21
e 5 31
e 5 41
e 5 50
e 5 49
e 5 12
e 5 35
e 5 32
e 5 6
e 6 23
e 6 58
e 6 37
e 6 40
e 6 32
e 6 59
e 6 64
e 6 44
e 6 36
e 6 14
e 6 62
e 6 22
e 6 48
e 6 31
e 6 16
e 6 50
e 6 33
e 7 47
e 7 26
e 7 15
e 7 11
e 7 50
e 7 37
e 7 62
e 7 48
e 7 40
e 7 38
e 7 21
e 7 8
e 7 35
e 8 46
e 8 17
e 8 47
e 8 20
e 8 40
e 8 59
e 8 45
e 8 23
e 8 31
e 8 10
e 9 64
e 9 21
e 9 59
e 9 15
e 9 49
e 9 61
e 9 45
e 9 62
e 9 50
e 10 23
e 10 41
e 10 30
e 10 27
e 10 32
e 10 14
e 10 22
e 10 19
e 10 25
e 10 12
e 10 18
e 10 63
e 10 64
e 11 45
e 11 47
e 11 13
e 11 61
e 11 63
e 11 24
e 11 25
e 11 50
e 11 49
e 11 60
e 11 37
e 11 59
e 11 16
e 11 52
e 12 24
e 12 13
e 12 15
e 12 64
e 12 21
e 12 30
e 12 17
e 12 61
e 12 63
e 12 48
e 12 37
e 12 40
e 12 50
e 12 23
e 12 41
e 12 34
e 12 44
e 13 31
e 13 28
e 13 48
e 13 57
e 13 60
e 13 27
e 13 30
e 13 29
e 13 45
e 13 50
e 13 26
e 13 64
e 13 47
e 13 40
e 13 36
e 14 60
e 14 36
e 14 64
e 14 32
e 14 28
e 14 52
e 14 49
e 14 50
e 14 31
e 14 55
e 14 56
e 14 35
e 14 17
e 14 23
e 15 34
e 15 36
e 15 54
e 15 18
e 15 45
e 15 44
e 15 64
e 15 52
e 15 24
e 15 40
e 15 37
e 16 52
e 16 45
e 16 37
e 16 19
e 16 48
e 16 26
e 16 61
e 16 24
e 16 42
e 16 40
e 16 43
e 16 39
e 16 29
e 16 38
e 17 34
e 17 33
e 17 63
e 17 23
e 17 21
e 17 31
e 17 37
e 17 56
e 17 62
e 17 27
e 17 44
e 18 22
e 18 26
e 18 29
e 18 40
e 18 42
e 18 21
e 18 41
e 18 62
e 18 30
e 19 53
e 19 35
e 19 54
e 19 34
e 19 61
e 19 48
e 19 39
e 19 45
e 19 30
e 19 27
e 20 43
e 20 24
e 20 53
e 20 29
e 20 58
e 20 64
e 20 22
e 20 49
e 20 47
e 20 42
e 20 23
e 21 29
e 21 23
e 21 38
e 21 52
e 21 35
e 21 61
e 22 51
e 22 43
e 22 31
e 22 50
e 22 38
e 22 32
e 22 37
e 22 60
e 22 24
e 22 41
e 22 58
e 22 46
e 22 30
e 22 63
e 22 36
e 23 37
e 23 42
e 23 45
e 23 38
e 23 33
e 23 44
e 23 51
e 23 58
e 23 59
e 23 40
e 23 30
e 24 62
e 24 36
e 24 60
e 24 39
e 24 25
e 24 48
e 24 55
e 24 58
e 24 49
e 24 26
e 25 56
e 25 34
e 25 36
e 25 33
e 25 53
e 25 38
e 25 59
e 25 47
e 25 41
e 25 27
e 25 51
e 25 40
e 25 46
e 25 62
e 25 49
e 25 39
e 26 63
e 26 62
e 26 27
e 26 33
e 26 49
e 26 36
e 26 44
e 26 51
e 26 64
e 27 43
e 27 41
e 27 59
e 27 49
e 27 63
e 27 40
e 27 61
e 27 45
e 28 37
e 28 39
e 28 43
e 28 40
e 28 34
e 29 55
e 29 64
e 29 35
e 29 63
e 29 33
e 29 61
e 29 54
e 29 52
e 29 59
e 30 61
e 30 60
e 30 41
e 30 54
e 30 58
e 30 33
e 30 42
e 30 31
e 30 51
e 31 33
e 31 62
e 31 41
e 31 36
e 31 47
e 31 34
e 31 55
e 31 39
e 31 58
e 31 48
e 31 49
e 31 46
e 32 34
e 32 61
e 32 35
e 32 50
e 32 48
e 32 55
e 32 43
e 32 41
e 32 62
e 33 62
e 33 39
e 33 59
e 33 49
e 33 51
e 33 53
e 33 34
e 33 63
e 34 55
e 34 51
e 34 58
e 34 52
e 34 47
e 35 43
e 35 54
e 35 39
e 35 47
e 35 62
e 36 63
e 36 52
e 36 54
e 36 57
e 36 42
e 36 40
e 36 43
e 36 44
e 36 37
e 36 47
e 36 56
e 37 45
e 37 48
e 37 63
e 37 49
e 37 39
e 37 43
e 37 60
e 37 64
e 37 57
e 37 47
e 37 40
e 38 41
e 38 63
e 38 50
e 38 60
e 38 58
e 38 44
e 38 59
e 38 53
e 39 55
e 39 48
e 39 51
e 39 61
e 39 59
e 39 60
e 39 40
e 39 47
e 40 60
e 40 49
e 40 45
e 40 43
e 41 46
e 41 51
e 41 57
e 41 44
e 41 42
e 42 64
e 42 47
e 42 54
e 42 59
e 42 55
e 43 50
e 43 51
e 43 61
e 43 60
e 43 44
e 43 64
e 43 53
e 44 63
e 44 53
e 44 56
e 44 48
e 45 46
e 46 52
e 46 51
e 46 49
e 47 61
e 47 52
e 47 55
e 48 58
e 48 50
e 48 63
e 48 60
e 48 55
e 49 62
e 49 50
e 49 60
e 49 63
e 49 64
e 50 54
e 50 58
e 50 62
e 50 60
e 50 64
e 51 63
e 51 55
e 51 52
e 51 62
e 51 53
e 52 57
e 53 57
e 53 64
e 54 64
e 55 60
e 55 63
e 55 59
e 55 61
e 56 58
e 56 63
e 56 60
e 56 59
e 56 61
e 57 59
e 58 60
e 59 61
e 62 64
